Version identifier: 22.1.1.0 | 2022-11-28 | 9160aff4d
CPXPARAM_ClockType                               1
CPXPARAM_Read_DataCheck                          1
CPXPARAM_Threads                                 1
CPXPARAM_TimeLimit                               7200
CPXPARAM_MIP_Tolerances_AbsMIPGap                0
CPXPARAM_MIP_Tolerances_MIPGap                   0
CPXPARAM_MIP_Tolerances_Integrality              0
Tried aggregator 5 times.
MIP Presolve eliminated 5150 rows and 1364 columns.
MIP Presolve modified 2 coefficients.
Aggregator did 247 substitutions.
Reduced MIP has 1850 rows, 949 columns, and 5022 nonzeros.
Reduced MIP has 949 binaries, 0 generals, 0 SOSs, and 0 indicators.
Presolve time = 0.02 sec. (10.62 ticks)
Found incumbent of value 0.000000 after 0.02 sec. (12.05 ticks)
Probing time = 0.01 sec. (3.09 ticks)
Tried aggregator 2 times.
Detecting symmetries...
MIP Presolve eliminated 6 rows and 6 columns.
MIP Presolve modified 5 coefficients.
Aggregator did 1 substitutions.
Reduced MIP has 1843 rows, 942 columns, and 4995 nonzeros.
Reduced MIP has 942 binaries, 0 generals, 0 SOSs, and 0 indicators.
Presolve time = 0.02 sec. (8.69 ticks)
Probing time = 0.00 sec. (2.19 ticks)
Clique table members: 3491.
MIP emphasis: balance optimality and feasibility.
MIP search method: dynamic search.
Parallel mode: none, using 1 thread.
Root relaxation solution time = 0.00 sec. (3.87 ticks)

        Nodes                                         Cuts/
   Node  Left     Objective  IInf  Best Integer    Best Bound    ItCnt     Gap

*     0+    0                            0.0000      190.0000              --- 
*     0     0      integral     0      190.0000      190.0000      190    0.00%
Elapsed time = 0.06 sec. (33.07 ticks, tree = 0.00 MB, solutions = 2)

Root node processing (before b&c):
  Real time             =    0.06 sec. (33.17 ticks)
Sequential b&c:
  Real time             =    0.00 sec. (0.00 ticks)
                          ------------
Total (root+branch&cut) =    0.06 sec. (33.17 ticks)
Solution is feasible.

---------------------
@@@ MIP_optimal
>>> Benchmark mc2024_track1_180.cnf k 2 OPT 190 TimeCost 0.4930140972137451 TimeSolve 0.05985903739929199 TimeRead 0.006021022796630859 TimeTrans 0.42713403701782227
